(set-info :source |
 Generated by Alive 0.1
 More info in N. P. Lopes, D. Menendez, S. Nagarakatte, J. Regehr.
 Provably Correct Peephole Optimizations with Alive. In PLDI'15.
|)

(set-info :status unknown)
(declare-fun %Y () (_ BitVec 23))
(declare-fun C2 () (_ BitVec 23))
(declare-fun C1 () (_ BitVec 23))
(declare-fun |ana_computeKnownZeroBits(%Y)| () (_ BitVec 23))
(declare-fun u_%LHS () (_ BitVec 8))
(assert
 (let ((?x10586 (bvxor %Y C2)))
 (let ((?x9577 (bvadd ?x10586 C1)))
 (let (($x32448 (= (bvor C2 |ana_computeKnownZeroBits(%Y)|) (_ bv8388607 23))))
 (let (($x2378 (and (and (distinct (bvadd C2 (_ bv1 23)) (_ bv0 23)) true) (= (bvand (bvadd C2 (_ bv1 23)) (bvsub (bvadd C2 (_ bv1 23)) (_ bv1 23))) (_ bv0 23)))))
 (let (($x410 (= u_%LHS (_ bv1 8))))
 (let (($x30781 (= (bvand |ana_computeKnownZeroBits(%Y)| %Y) (_ bv0 23))))
 (and $x30781 $x410 $x2378 $x32448 (and (distinct ?x9577 (bvsub (bvadd C1 C2) %Y)) true)))))))))
(check-sat)
